unsat
(define-fun inv-f ((i Int) (j Int) (x Int) (y Int) (i_0 Int) (i_1 Int) (i_2 Int) (i_3 Int) (j_0 Int) (j_1 Int) (j_2 Int) (j_3 Int) (x_0 Int) (y_0 Int) (y_1 Int)) Bool (and (or (not (= i i_2)) (not (= j j_2)) (not (= x x_0)) (not (= y y_1)) (not (>= (+ i_2 (* (- 1) x_0)) 1)) (not (= y_1 1)) (= i_2 j_2)) (not (= y 1))))
0.12user 0.00system 0:00.12elapsed 100%CPU (0avgtext+0avgdata 28020maxresident)k
0inputs+8outputs (0major+1749minor)pagefaults 0swaps
